data/solutions/recovery/wellformed/moderate/binding/wellformed_moderate_instance89/12.sol
Elapsed time: 0.02
Upper bound: 7821.0
Planning weighted value: 430442.0
C[0]=7821.0
C[1]=7518.0
C[2]=7223.0
C[3]=7146.0
C[4]=6831.0
C[5]=6824.0
y[0]=0
y[1]=1
y[2]=5
y[3]=1
y[4]=5
y[5]=2
y[6]=4
y[7]=3
y[8]=0
y[9]=0
y[10]=2
y[11]=2
y[12]=2
y[13]=4
y[14]=5
y[15]=3
y[16]=3
y[17]=4
y[18]=0
y[19]=4
y[20]=1
y[21]=1
y[22]=2
y[23]=4
y[24]=3
y[25]=2
y[26]=3
y[27]=5
y[28]=0
y[29]=1
y[30]=1
y[31]=3
y[32]=4
y[33]=5
y[34]=4
y[35]=2
y[36]=5
y[37]=1
y[38]=5
y[39]=0
y[40]=1
y[41]=0
