data/solutions/recovery/wellformed/moderate/binding/wellformed_moderate_instance89/12.log

Log started (V12.6.3.0) Fri Apr 20 17:47:01 2018

New value for default parallel thread count: 1

Problem '/tmp/tmp8AnowC.pyomo.lp' read.
Read time = 0.00 sec. (0.13 ticks)

Problem name         : /tmp/tmp8AnowC.pyomo.lp
Objective sense      : Minimize
Variables            :     260  [Nneg: 1,  Binary: 252,  General Integer: 7]
Objective nonzeros   :       1
Linear constraints   :      97  [Less: 48,  Equal: 49]
  Nonzeros           :    8917
  RHS nonzeros       :      43

Variables            : Min LB: 0.000000         Max UB: 1.000000       
Objective nonzeros   : Min   : 1.000000         Max   : 1.000000       
Linear constraints   :
  Nonzeros           : Min   : 1.000000         Max   : 1980.000       
  RHS nonzeros       : Min   : 1.000000         Max   : 1.000000       
Tried aggregator 2 times.
MIP Presolve eliminated 83 rows and 241 columns.
Aggregator did 6 substitutions.
Reduced MIP has 8 rows, 13 columns, and 30 nonzeros.
Reduced MIP has 12 binaries, 1 generals, 0 SOSs, and 0 indicators.
Presolve time = 0.00 sec. (0.62 ticks)
Found incumbent of value 10273.000000 after 0.00 sec. (0.84 ticks)
Probing time = 0.00 sec. (0.01 ticks)
Cover probing fixed 0 vars, tightened 1 bounds.
Tried aggregator 1 time.
MIP Presolve modified 2 coefficients.
Reduced MIP has 8 rows, 13 columns, and 30 nonzeros.
Reduced MIP has 12 binaries, 1 generals, 0 SOSs, and 0 indicators.
Presolve time = 0.00 sec. (0.02 ticks)
Probing time = 0.00 sec. (0.01 ticks)
Clique table members: 2.
MIP emphasis: balance optimality and feasibility.
MIP search method: dynamic search.
Parallel mode: none, using 1 thread.
Root relaxation solution time = 0.00 sec. (0.01 ticks)

        Nodes                                         Cuts/
   Node  Left     Objective  IInf  Best Integer    Best Bound    ItCnt     Gap

*     0+    0                        10273.0000     7518.0000            26.82%
      0     0     7518.0000     5    10273.0000     7518.0000        3   26.82%
*     0+    0                         7997.0000     7518.0000             5.99%
*     0     0      integral     0     7821.0000     7821.0000        5    0.00%
Elapsed time = 0.00 sec. (0.96 ticks, tree = 0.01 MB, solutions = 3)

Root node processing (before b&c):
  Real time             =    0.00 sec. (0.97 ticks)
Sequential b&c:
  Real time             =    0.00 sec. (0.00 ticks)
                          ------------
Total (root+branch&cut) =    0.00 sec. (0.97 ticks)

Solution pool: 3 solutions saved.

MIP - Integer optimal solution:  Objective =  7.8210000000e+03
Solution time =    0.00 sec.  Iterations = 5  Nodes = 0
Deterministic time = 0.98 ticks  (303.73 ticks/sec)


Incumbent solution written to file '/tmp/tmpVy5BHr.cplex.sol'.

Log started (V12.6.3.0) Fri Apr 20 17:49:28 2018

New value for default parallel thread count: 1

Problem '/tmp/tmpV1UKhY.pyomo.lp' read.
Read time = 0.00 sec. (0.13 ticks)

Problem name         : /tmp/tmpV1UKhY.pyomo.lp
Objective sense      : Minimize
Variables            :     260  [Nneg: 1,  Binary: 252,  General Integer: 7]
Objective nonzeros   :       1
Linear constraints   :      97  [Less: 48,  Equal: 49]
  Nonzeros           :    8917
  RHS nonzeros       :      43

Variables            : Min LB: 0.000000         Max UB: 1.000000       
Objective nonzeros   : Min   : 1.000000         Max   : 1.000000       
Linear constraints   :
  Nonzeros           : Min   : 1.000000         Max   : 1980.000       
  RHS nonzeros       : Min   : 1.000000         Max   : 1.000000       
Tried aggregator 2 times.
MIP Presolve eliminated 83 rows and 241 columns.
Aggregator did 6 substitutions.
Reduced MIP has 8 rows, 13 columns, and 30 nonzeros.
Reduced MIP has 12 binaries, 1 generals, 0 SOSs, and 0 indicators.
Presolve time = 0.00 sec. (0.62 ticks)
Found incumbent of value 10273.000000 after 0.00 sec. (0.84 ticks)
Probing time = 0.00 sec. (0.01 ticks)
Cover probing fixed 0 vars, tightened 1 bounds.
Tried aggregator 1 time.
MIP Presolve modified 2 coefficients.
Reduced MIP has 8 rows, 13 columns, and 30 nonzeros.
Reduced MIP has 12 binaries, 1 generals, 0 SOSs, and 0 indicators.
Presolve time = 0.00 sec. (0.02 ticks)
Probing time = 0.00 sec. (0.01 ticks)
Clique table members: 2.
MIP emphasis: balance optimality and feasibility.
MIP search method: dynamic search.
Parallel mode: none, using 1 thread.
Root relaxation solution time = 0.00 sec. (0.01 ticks)

        Nodes                                         Cuts/
   Node  Left     Objective  IInf  Best Integer    Best Bound    ItCnt     Gap

*     0+    0                        10273.0000     7518.0000            26.82%
      0     0     7518.0000     5    10273.0000     7518.0000        3   26.82%
*     0+    0                         7997.0000     7518.0000             5.99%
*     0     0      integral     0     7821.0000     7821.0000        5    0.00%
Elapsed time = 0.00 sec. (0.96 ticks, tree = 0.01 MB, solutions = 3)

Root node processing (before b&c):
  Real time             =    0.00 sec. (0.97 ticks)
Sequential b&c:
  Real time             =    0.00 sec. (0.00 ticks)
                          ------------
Total (root+branch&cut) =    0.00 sec. (0.97 ticks)

Solution pool: 3 solutions saved.

MIP - Integer optimal solution:  Objective =  7.8210000000e+03
Solution time =    0.00 sec.  Iterations = 5  Nodes = 0
Deterministic time = 0.98 ticks  (313.80 ticks/sec)


Incumbent solution written to file '/tmp/tmpP2e_wW.cplex.sol'.

Log started (V12.6.3.0) Fri Apr 20 17:52:30 2018

New value for default parallel thread count: 1

Problem '/tmp/tmpG0qr1H.pyomo.lp' read.
Read time = 0.00 sec. (0.13 ticks)

Problem name         : /tmp/tmpG0qr1H.pyomo.lp
Objective sense      : Minimize
Variables            :     260  [Nneg: 1,  Binary: 252,  General Integer: 7]
Objective nonzeros   :       1
Linear constraints   :      97  [Less: 48,  Equal: 49]
  Nonzeros           :    8917
  RHS nonzeros       :      43

Variables            : Min LB: 0.000000         Max UB: 1.000000       
Objective nonzeros   : Min   : 1.000000         Max   : 1.000000       
Linear constraints   :
  Nonzeros           : Min   : 1.000000         Max   : 1980.000       
  RHS nonzeros       : Min   : 1.000000         Max   : 1.000000       
Tried aggregator 2 times.
MIP Presolve eliminated 83 rows and 241 columns.
Aggregator did 6 substitutions.
Reduced MIP has 8 rows, 13 columns, and 30 nonzeros.
Reduced MIP has 12 binaries, 1 generals, 0 SOSs, and 0 indicators.
Presolve time = 0.00 sec. (0.62 ticks)
Found incumbent of value 10273.000000 after 0.00 sec. (0.84 ticks)
Probing time = 0.00 sec. (0.01 ticks)
Cover probing fixed 0 vars, tightened 1 bounds.
Tried aggregator 1 time.
MIP Presolve modified 2 coefficients.
Reduced MIP has 8 rows, 13 columns, and 30 nonzeros.
Reduced MIP has 12 binaries, 1 generals, 0 SOSs, and 0 indicators.
Presolve time = 0.00 sec. (0.02 ticks)
Probing time = 0.00 sec. (0.01 ticks)
Clique table members: 2.
MIP emphasis: balance optimality and feasibility.
MIP search method: dynamic search.
Parallel mode: none, using 1 thread.
Root relaxation solution time = 0.00 sec. (0.01 ticks)

        Nodes                                         Cuts/
   Node  Left     Objective  IInf  Best Integer    Best Bound    ItCnt     Gap

*     0+    0                        10273.0000     7518.0000            26.82%
      0     0     7518.0000     5    10273.0000     7518.0000        3   26.82%
*     0+    0                         7997.0000     7518.0000             5.99%
*     0     0      integral     0     7821.0000     7821.0000        5    0.00%
Elapsed time = 0.00 sec. (0.96 ticks, tree = 0.01 MB, solutions = 3)

Root node processing (before b&c):
  Real time             =    0.00 sec. (0.97 ticks)
Sequential b&c:
  Real time             =    0.00 sec. (0.00 ticks)
                          ------------
Total (root+branch&cut) =    0.00 sec. (0.97 ticks)

Solution pool: 3 solutions saved.

MIP - Integer optimal solution:  Objective =  7.8210000000e+03
Solution time =    0.00 sec.  Iterations = 5  Nodes = 0
Deterministic time = 0.98 ticks  (375.39 ticks/sec)


Incumbent solution written to file '/tmp/tmpzQ07E4.cplex.sol'.
